     Program PWSCF v.6.6 starts on  4Feb2024 at 13:33:50

     R & G space division:  proc/nbgrp/npool/nimage =      16
     Fft bands division:     nmany     =       1
     Waiting for input...
     Reading input from standard input

     Current dimensions of program PWSCF are:
     Max number of different atomic species (ntypx) = 10
     Max number of k-points (npk) =  40000
     Max angular momentum in pseudopotentials (lmaxx) =  3

     IMPORTANT: XC functional enforced from input :
     Exchange-correlation= PBE
                           (   1   4   3   4   0   0   0)
     Any further DFT definition will be discarded
     Please, verify this is what you really want

     Parameters for DFT-D3 Dispersion Correction:
       Reference C6 values for interpolation:

         atom   Coordination number   C6
         O          0.000            31.01
         O          0.993            25.63
         O          1.989            20.74
         Mg         0.000          1366.75
         Mg         0.963           902.54
         Mg         1.950           351.12

       Values used:

         atom   Coordination number  R0_AB[au]  C6      C8
         Mg        15.752            3.292    351.12  31436.69
         Mg        15.752            3.292    351.12  31436.69
         Mg        15.752            3.292    351.12  31436.69
         Mg        15.752            3.292    351.12  31436.69
         O          5.830            2.345     20.74    418.58
         O          5.830            2.345     20.74    418.58
         O          5.830            2.345     20.74    418.58
         O          5.830            2.345     20.74    418.58

         Molecular C6 ( Ry / a.u.^6 ) =      8251.69

     Subspace diagonalization in iterative solution of the eigenvalue problem:
     a serial algorithm will be used

     Found symmetry operation: I + ( -0.0000 -0.5000 -0.5000)
     This is a supercell, fractional translations are disabled
     Message from routine setup:
     using ibrav=0 with symmetry is DISCOURAGED, use correct ibrav instead

     bravais-lattice index     =            0
     lattice parameter (alat)  =       8.0589  a.u.
     unit-cell volume          =     491.0092 (a.u.)^3
     number of atoms/cell      =            8
     number of atomic types    =            2
     number of electrons       =        64.00
     number of Kohn-Sham states=           38
     kinetic-energy cutoff     =     100.0000  Ry
     charge density cutoff     =     400.0000  Ry
     convergence threshold     =      1.0E-06
     mixing beta               =       0.5000
     number of iterations used =            8  plain     mixing
     Exchange-correlation= PBE
                           (   1   4   3   4   0   0   0)
     nstep                     =          100

     celldm(1)=   8.058851  celldm(2)=   0.000000  celldm(3)=   0.000000
     celldm(4)=   0.000000  celldm(5)=   0.000000  celldm(6)=   0.000000

     crystal axes: (cart. coord. in units of alat)
               a(1) = (   0.987441  -0.157991   0.000000 )
               a(2) = (  -0.157991   0.987441   0.000000 )
               a(3) = (   0.000000   0.000000   0.987441 )

     reciprocal axes: (cart. coord. in units 2 pi/alat)
               b(1) = (  1.039326  0.166292  0.000000 )
               b(2) = (  0.166292  1.039326  0.000000 )
               b(3) = (  0.000000  0.000000  1.012719 )

     PseudoPot. # 1 for Mg read from file:
     ./Mg.upf
     MD5 check sum: 4c04d8c6e0476e83eaecaf72fa8acc4d
     Pseudo is Norm-conserving, Zval = 10.0
     Generated using ONCVPSP code by D. R. Hamann
     Using radial grid of 1510 points,  4 beta functions with:
                l(1) =   0
                l(2) =   0
                l(3) =   1
                l(4) =   1

     PseudoPot. # 2 for O  read from file:
     ./O.upf
     MD5 check sum: 3e3f909f7470e8921608ab6b1f57bbae
     Pseudo is Norm-conserving + core correction, Zval =  6.0
     Generated using ONCVPSP code by D. R. Hamann
     Using radial grid of  936 points,  5 beta functions with:
                l(1) =   0
                l(2) =   0
                l(3) =   1
                l(4) =   1
                l(5) =   2

     atomic species   valence    mass     pseudopotential
        Mg            10.00    24.30500     Mg( 1.00)
        O              6.00    15.99900     O ( 1.00)

      8 Sym. Ops., with inversion, found

   Cartesian axes

     site n.     atom                  positions (alat units)
         1           Mg  tau(   1) = (   0.0000000   0.0000000   0.0000000  )
         2           Mg  tau(   2) = (  -0.0789953   0.4937203   0.4937203  )
         3           Mg  tau(   3) = (   0.4937203  -0.0789953   0.4937203  )
         4           Mg  tau(   4) = (   0.4147251   0.4147251   0.0000000  )
         5           O   tau(   5) = (   0.4147251   0.4147251   0.4937203  )
         6           O   tau(   6) = (   0.4937203  -0.0789953   0.0000000  )
         7           O   tau(   7) = (  -0.0789953   0.4937203   0.0000000  )
         8           O   tau(   8) = (   0.0000000   0.0000000   0.4937203  )

     number of k points=    27  Gaussian smearing, width (Ry)=  0.0050
                       cart. coord. in units 2pi/alat
        k(    1) = (   0.0000000   0.0000000   0.0000000), wk =   0.0160000
        k(    2) = (   0.0000000   0.0000000   0.2025438), wk =   0.0320000
        k(    3) = (   0.0000000   0.0000000   0.4050876), wk =   0.0320000
        k(    4) = (   0.0332584   0.2078652   0.0000000), wk =   0.0640000
        k(    5) = (   0.0332584   0.2078652   0.2025438), wk =   0.1280000
        k(    6) = (   0.0332584   0.2078652   0.4050876), wk =   0.1280000
        k(    7) = (   0.0665169   0.4157303   0.0000000), wk =   0.0640000
        k(    8) = (   0.0665169   0.4157303   0.2025438), wk =   0.1280000
        k(    9) = (   0.0665169   0.4157303   0.4050876), wk =   0.1280000
        k(   10) = (   0.2411236   0.2411236   0.0000000), wk =   0.0320000
        k(   11) = (   0.2411236   0.2411236   0.2025438), wk =   0.0640000
        k(   12) = (   0.2411236   0.2411236   0.4050876), wk =   0.0640000
        k(   13) = (   0.2743820   0.4489888   0.0000000), wk =   0.0640000
        k(   14) = (   0.2743820   0.4489888   0.2025438), wk =   0.1280000
        k(   15) = (   0.2743820   0.4489888   0.4050876), wk =   0.1280000
        k(   16) = (   0.1413483  -0.3824719   0.0000000), wk =   0.0640000
        k(   17) = (   0.1413483  -0.3824719   0.2025438), wk =   0.1280000
        k(   18) = (   0.1413483  -0.3824719   0.4050876), wk =   0.1280000
        k(   19) = (   0.1746067  -0.1746067   0.0000000), wk =   0.0320000
        k(   20) = (   0.1746067  -0.1746067   0.2025438), wk =   0.0640000
        k(   21) = (   0.1746067  -0.1746067   0.4050876), wk =   0.0640000
        k(   22) = (   0.4822472   0.4822472   0.0000000), wk =   0.0320000
        k(   23) = (   0.4822472   0.4822472   0.2025438), wk =   0.0640000
        k(   24) = (   0.4822472   0.4822472   0.4050876), wk =   0.0640000
        k(   25) = (   0.3492135  -0.3492135   0.0000000), wk =   0.0320000
        k(   26) = (   0.3492135  -0.3492135   0.2025438), wk =   0.0640000
        k(   27) = (   0.3492135  -0.3492135   0.4050876), wk =   0.0640000

     Initial potential from superposition of free atoms

     starting charge   63.99678, renormalised to   64.00000
     Starting wfcs are   36 randomized atomic wfcs +    2 random wfcs

     Self-consistent Calculation

     iteration #  1     ecut=   100.00 Ry     beta= 0.50
     Davidson diagonalization with overlap
     ethr =  1.00E-02,  avg # of iterations =  3.8

     total energy              =    -607.72345844 Ry
     estimated scf accuracy    <       1.67224113 Ry

[...]

     total energy              =    -608.23557065 Ry
     estimated scf accuracy    <       0.00000170 Ry

     iteration #  8     ecut=   100.00 Ry     beta= 0.50
     Davidson diagonalization with overlap
     ethr =  2.65E-09,  avg # of iterations =  2.2

     End of self-consistent calculation

          k = 0.0000 0.0000 0.0000 (  8275 PWs)   bands (ev):

   -64.3185 -64.3081 -64.2881 -64.2881 -31.3347 -31.3347 -31.1352 -31.1210
   -31.0995 -31.0428 -31.0427 -31.0334 -31.0299 -30.9909 -30.9909 -30.9900
    -8.6896  -7.1769  -6.6750  -6.6749   4.3895   4.6247   4.6247   5.5755
     7.3150   7.3150   7.4998   7.4999   7.6673   8.3152   9.6363  10.3131
    12.4978  14.7417  17.8647  18.6569  18.6569  20.2955

[...]

          k = 0.3492-0.3492 0.4051 (  8264 PWs)   bands (ev):

   -64.3134 -64.3125 -64.2884 -64.2884 -31.3382 -31.3382 -31.1280 -31.1266
   -31.0889 -31.0832 -31.0428 -31.0428 -31.0058 -31.0015 -30.9836 -30.9836
    -7.7492  -7.5927  -6.6716  -6.6715   3.4526   3.6536   4.6001   4.6002
     7.0842   7.0843   7.5135   7.8317   7.8318   7.9147   9.8962   9.9603
    15.7306  15.7306  16.5505  17.4890  18.6727  19.2282

     the Fermi energy is    11.2709 ev

!    total energy              =    -608.23557090 Ry
     estimated scf accuracy    <       0.00000005 Ry
     smearing contrib. (-TS)   =      -0.00000000 Ry
     internal energy E=F+TS    =    -608.23557090 Ry

     The total energy is F=E-TS. E is the sum of the following terms:
     one-electron contribution =    -289.18638801 Ry
     hartree contribution      =     162.73621078 Ry
     xc contribution           =     -97.99523375 Ry
     ewald contribution        =    -383.67842283 Ry
     DFT-D3 Dispersion         =      -0.11173709 Ry

     convergence has been achieved in   8 iterations

     Forces acting on atoms (cartesian axes, Ry/au):

     atom    1 type  1   force =     0.00000000    0.00000000    0.00000000
     atom    2 type  1   force =     0.00000000    0.00000000    0.00000000
     atom    3 type  1   force =     0.00000000    0.00000000    0.00000000
     atom    4 type  1   force =     0.00000000    0.00000000    0.00000000
     atom    5 type  2   force =     0.00000000    0.00000000    0.00000000
     atom    6 type  2   force =     0.00000000    0.00000000    0.00000000
     atom    7 type  2   force =     0.00000000    0.00000000    0.00000000
     atom    8 type  2   force =     0.00000000    0.00000000    0.00000000

     Total force =     0.000000     Total SCF correction =     0.000000

     BFGS Geometry Optimization

     bfgs converged in   1 scf cycles and   0 bfgs steps
     (criteria: energy <  1.0E-04 Ry, force <  1.0E-03 Ry/Bohr)

     End of BFGS Geometry Optimization

     Final energy   =    -608.2355708998 Ry
Begin final coordinates

ATOMIC_POSITIONS (angstrom)
Mg            0.0000000000        0.0000000000        0.0000000000
Mg           -0.3368800000        2.1055000000        2.1055000000
Mg            2.1055000000       -0.3368800000        2.1055000000
Mg            1.7686200000        1.7686200000        0.0000000000
O             1.7686200000        1.7686200000        2.1055000000
O             2.1055000000       -0.3368800000        0.0000000000
O            -0.3368800000        2.1055000000        0.0000000000
O             0.0000000000        0.0000000000        2.1055000000
End final coordinates

     General routines

     Parallel routines

   This run was terminated on:  13:34:17   4Feb2024

   JOB DONE.