     Program PWSCF v.6.6 starts on  4Feb2024 at 13:33:50

     R & G space division:  proc/nbgrp/npool/nimage =      16
     Fft bands division:     nmany     =       1
     Waiting for input...
     Reading input from standard input

     Current dimensions of program PWSCF are:
     Max number of different atomic species (ntypx) = 10
     Max number of k-points (npk) =  40000
     Max angular momentum in pseudopotentials (lmaxx) =  3

     IMPORTANT: XC functional enforced from input :
     Exchange-correlation= PBE
                           (   1   4   3   4   0   0   0)
     Any further DFT definition will be discarded
     Please, verify this is what you really want

     Parameters for DFT-D3 Dispersion Correction:
       Reference C6 values for interpolation:

         atom   Coordination number   C6
         O          0.000            31.01
         O          0.993            25.63
         O          1.989            20.74
         Mg         0.000          1366.75
         Mg         0.963           902.54
         Mg         1.950           351.12

       Values used:

         atom   Coordination number  R0_AB[au]  C6      C8
         Mg        17.078            3.292    351.12  31436.69
         Mg        17.078            3.292    351.12  31436.69
         Mg        17.078            3.292    351.12  31436.69
         Mg        17.078            3.292    351.12  31436.69
         O          5.889            2.345     20.74    418.58
         O          5.889            2.345     20.74    418.58
         O          5.889            2.345     20.74    418.58
         O          5.889            2.345     20.74    418.58

         Molecular C6 ( Ry / a.u.^6 ) =      8251.69

     Subspace diagonalization in iterative solution of the eigenvalue problem:
     a serial algorithm will be used

     Found symmetry operation: I + (  0.0000 -0.5000 -0.5000)
     This is a supercell, fractional translations are disabled
     Message from routine setup:
     using ibrav=0 with symmetry is DISCOURAGED, use correct ibrav instead

     bravais-lattice index     =            0
     lattice parameter (alat)  =       7.5598  a.u.
     unit-cell volume          =     478.7138 (a.u.)^3
     number of atoms/cell      =            8
     number of atomic types    =            2
     number of electrons       =        64.00
     number of Kohn-Sham states=           38
     kinetic-energy cutoff     =     100.0000  Ry
     charge density cutoff     =     400.0000  Ry
     convergence threshold     =      1.0E-06
     mixing beta               =       0.5000
     number of iterations used =            8  plain     mixing
     Exchange-correlation= PBE
                           (   1   4   3   4   0   0   0)
     nstep                     =          100

     celldm(1)=   7.559755  celldm(2)=   0.000000  celldm(3)=   0.000000
     celldm(4)=   0.000000  celldm(5)=   0.000000  celldm(6)=   0.000000

     crystal axes: (cart. coord. in units of alat)
               a(1) = (   1.000000   0.000000   0.000000 )
               a(2) = (   0.000000   1.052632   0.000000 )
               a(3) = (   0.000000   0.000000   1.052632 )

     reciprocal axes: (cart. coord. in units 2 pi/alat)
               b(1) = (  1.000000  0.000000  0.000000 )
               b(2) = (  0.000000  0.950000  0.000000 )
               b(3) = (  0.000000  0.000000  0.950000 )

     PseudoPot. # 1 for Mg read from file:
     ./Mg.upf
     MD5 check sum: 4c04d8c6e0476e83eaecaf72fa8acc4d
     Pseudo is Norm-conserving, Zval = 10.0
     Generated using ONCVPSP code by D. R. Hamann
     Using radial grid of 1510 points,  4 beta functions with:
                l(1) =   0
                l(2) =   0
                l(3) =   1
                l(4) =   1

     PseudoPot. # 2 for O  read from file:
     ./O.upf
     MD5 check sum: 3e3f909f7470e8921608ab6b1f57bbae
     Pseudo is Norm-conserving + core correction, Zval =  6.0
     Generated using ONCVPSP code by D. R. Hamann
     Using radial grid of  936 points,  5 beta functions with:
                l(1) =   0
                l(2) =   0
                l(3) =   1
                l(4) =   1
                l(5) =   2

     atomic species   valence    mass     pseudopotential
        Mg            10.00    24.30500     Mg( 1.00)
        O              6.00    15.99900     O ( 1.00)

     16 Sym. Ops., with inversion, found

   Cartesian axes

     site n.     atom                  positions (alat units)
         1           Mg  tau(   1) = (   0.0000000   0.0000000   0.0000000  )
         2           Mg  tau(   2) = (   0.0000000   0.5263158   0.5263158  )
         3           Mg  tau(   3) = (   0.5000000   0.0000000   0.5263158  )
         4           Mg  tau(   4) = (   0.5000000   0.5263158   0.0000000  )
         5           O   tau(   5) = (   0.5000000   0.5263158   0.5263158  )
         6           O   tau(   6) = (   0.5000000   0.0000000   0.0000000  )
         7           O   tau(   7) = (   0.0000000   0.5263158   0.0000000  )
         8           O   tau(   8) = (   0.0000000   0.0000000   0.5263158  )

     number of k points=    18  Gaussian smearing, width (Ry)=  0.0050
                       cart. coord. in units 2pi/alat
        k(    1) = (   0.0000000   0.0000000   0.0000000), wk =   0.0160000
        k(    2) = (   0.0000000   0.0000000   0.1900000), wk =   0.0640000
        k(    3) = (   0.0000000   0.0000000   0.3800000), wk =   0.0640000
        k(    4) = (   0.0000000   0.1900000   0.1900000), wk =   0.0640000
        k(    5) = (   0.0000000   0.1900000   0.3800000), wk =   0.1280000
        k(    6) = (   0.0000000   0.3800000   0.3800000), wk =   0.0640000
        k(    7) = (   0.2000000   0.0000000   0.0000000), wk =   0.0320000
        k(    8) = (   0.2000000   0.0000000   0.1900000), wk =   0.1280000
        k(    9) = (   0.2000000   0.0000000   0.3800000), wk =   0.1280000
        k(   10) = (   0.2000000   0.1900000   0.1900000), wk =   0.1280000
        k(   11) = (   0.2000000   0.1900000   0.3800000), wk =   0.2560000
        k(   12) = (   0.2000000   0.3800000   0.3800000), wk =   0.1280000
        k(   13) = (   0.4000000   0.0000000   0.0000000), wk =   0.0320000
        k(   14) = (   0.4000000   0.0000000   0.1900000), wk =   0.1280000
        k(   15) = (   0.4000000   0.0000000   0.3800000), wk =   0.1280000
        k(   16) = (   0.4000000   0.1900000   0.1900000), wk =   0.1280000
        k(   17) = (   0.4000000   0.1900000   0.3800000), wk =   0.2560000
        k(   18) = (   0.4000000   0.3800000   0.3800000), wk =   0.1280000

     Initial potential from superposition of free atoms

     starting charge   63.99678, renormalised to   64.00000
     Starting wfcs are   36 randomized atomic wfcs +    2 random wfcs

     Self-consistent Calculation

     iteration #  1     ecut=   100.00 Ry     beta= 0.50
     Davidson diagonalization with overlap
     ethr =  1.00E-02,  avg # of iterations =  4.0

     total energy              =    -608.02533108 Ry
     estimated scf accuracy    <       1.57206971 Ry

[...]

     total energy              =    -608.49813766 Ry
     estimated scf accuracy    <       0.00000290 Ry

     iteration #  8     ecut=   100.00 Ry     beta= 0.50
     Davidson diagonalization with overlap
     ethr =  2.08E-09,  avg # of iterations =  2.3

     End of self-consistent calculation

          k = 0.0000 0.0000 0.0000 (  8073 PWs)   bands (ev):

   -63.4571 -63.4429 -63.4429 -63.4405 -30.3128 -30.3128 -30.2843 -30.2653
   -30.2653 -30.2512 -30.2512 -30.2308 -30.2308 -30.2247 -30.2247 -30.1932
    -8.7516  -7.1086  -7.1086  -6.9645   4.3888   4.3888   4.6078   7.1452
     7.1452   7.2304   7.2305   7.5362   7.5362   8.6295   8.7422   8.7422
    13.9785  17.6380  18.2199  18.2199  19.2797  19.3436

[...]

          k = 0.4000 0.3800 0.3800 (  8083 PWs)   bands (ev):

   -63.4469 -63.4455 -63.4455 -63.4453 -30.3161 -30.3161 -30.3161 -30.3111
   -30.2433 -30.2433 -30.2417 -30.2378 -30.2163 -30.2129 -30.2128 -30.2089
    -7.4532  -7.2743  -7.2742  -7.2600   4.0671   4.0806   4.0806   4.2742
     7.6223   7.6224   7.7269   7.8633   7.9666   7.9666   8.0179   8.1137
    16.9422  17.4099  17.4426  17.4426  21.7107  21.7603

     the Fermi energy is    11.2102 ev

!    total energy              =    -608.49813826 Ry
     estimated scf accuracy    <       0.00000002 Ry
     smearing contrib. (-TS)   =      -0.00000000 Ry
     internal energy E=F+TS    =    -608.49813826 Ry

     The total energy is F=E-TS. E is the sum of the following terms:
     one-electron contribution =    -287.80703154 Ry
     hartree contribution      =     163.03880927 Ry
     xc contribution           =     -98.22501733 Ry
     ewald contribution        =    -385.39065166 Ry
     DFT-D3 Dispersion         =      -0.11424699 Ry

     convergence has been achieved in   8 iterations

     Forces acting on atoms (cartesian axes, Ry/au):

     atom    1 type  1   force =     0.00000000    0.00000000    0.00000000
     atom    2 type  1   force =     0.00000000    0.00000000    0.00000000
     atom    3 type  1   force =     0.00000000    0.00000000    0.00000000
     atom    4 type  1   force =     0.00000000    0.00000000    0.00000000
     atom    5 type  2   force =     0.00000000    0.00000000    0.00000000
     atom    6 type  2   force =     0.00000000    0.00000000    0.00000000
     atom    7 type  2   force =     0.00000000    0.00000000    0.00000000
     atom    8 type  2   force =     0.00000000    0.00000000    0.00000000

     Total force =     0.000000     Total SCF correction =     0.000000

     BFGS Geometry Optimization

     bfgs converged in   1 scf cycles and   0 bfgs steps
     (criteria: energy <  1.0E-04 Ry, force <  1.0E-03 Ry/Bohr)

     End of BFGS Geometry Optimization

     Final energy   =    -608.4981382563 Ry
Begin final coordinates

ATOMIC_POSITIONS (angstrom)
Mg            0.0000000000        0.0000000000        0.0000000000
Mg            0.0000000000        2.1055000000        2.1055000000
Mg            2.0002250000        0.0000000000        2.1055000000
Mg            2.0002250000        2.1055000000        0.0000000000
O             2.0002250000        2.1055000000        2.1055000000
O             2.0002250000        0.0000000000        0.0000000000
O             0.0000000000        2.1055000000        0.0000000000
O             0.0000000000        0.0000000000        2.1055000000
End final coordinates

     General routines

     Parallel routines

   This run was terminated on:  13:34: 9   4Feb2024

   JOB DONE.