     Program PWSCF v.6.6 starts on  4Feb2024 at 13:34:19

     R & G space division:  proc/nbgrp/npool/nimage =      16
     Fft bands division:     nmany     =       1
     Waiting for input...
     Reading input from standard input

     Current dimensions of program PWSCF are:
     Max number of different atomic species (ntypx) = 10
     Max number of k-points (npk) =  40000
     Max angular momentum in pseudopotentials (lmaxx) =  3

     IMPORTANT: XC functional enforced from input :
     Exchange-correlation= PBE
                           (   1   4   3   4   0   0   0)
     Any further DFT definition will be discarded
     Please, verify this is what you really want

     Parameters for DFT-D3 Dispersion Correction:
       Reference C6 values for interpolation:

         atom   Coordination number   C6
         O          0.000            31.01
         O          0.993            25.63
         O          1.989            20.74
         Mg         0.000          1366.75
         Mg         0.963           902.54
         Mg         1.950           351.12

       Values used:

         atom   Coordination number  R0_AB[au]  C6      C8
         Mg        16.582            3.292    351.12  31436.69
         Mg        16.582            3.292    351.12  31436.69
         Mg        16.582            3.292    351.12  31436.69
         Mg        16.582            3.292    351.12  31436.69
         O          5.817            2.345     20.74    418.58
         O          5.817            2.345     20.74    418.58
         O          5.817            2.345     20.74    418.58
         O          5.817            2.345     20.74    418.58

         Molecular C6 ( Ry / a.u.^6 ) =      8251.69

     Subspace diagonalization in iterative solution of the eigenvalue problem:
     a serial algorithm will be used

     Found symmetry operation: I + (  0.0000 -0.5000 -0.5000)
     This is a supercell, fractional translations are disabled

     bravais-lattice index     =            0
     lattice parameter (alat)  =       7.9576  a.u.
     unit-cell volume          =     503.9092 (a.u.)^3
     number of atoms/cell      =            8
     number of atomic types    =            2
     number of electrons       =        64.00
     number of Kohn-Sham states=           38
     kinetic-energy cutoff     =     100.0000  Ry
     charge density cutoff     =     400.0000  Ry
     convergence threshold     =      1.0E-06
     mixing beta               =       0.5000
     number of iterations used =            8  plain     mixing
     Exchange-correlation= PBE
                           (   1   4   3   4   0   0   0)
     nstep                     =          100

     celldm(1)=   7.957637  celldm(2)=   0.000000  celldm(3)=   0.000000
     celldm(4)=   0.000000  celldm(5)=   0.000000  celldm(6)=   0.000000

     crystal axes: (cart. coord. in units of alat)
               a(1) = (   1.000000   0.000000   0.000000 )
               a(2) = (   0.000000   1.000000   0.000000 )
               a(3) = (   0.000000   0.000000   1.000000 )

     reciprocal axes: (cart. coord. in units 2 pi/alat)
               b(1) = (  1.000000  0.000000  0.000000 )
               b(2) = (  0.000000  1.000000  0.000000 )
               b(3) = (  0.000000  0.000000  1.000000 )

     PseudoPot. # 1 for Mg read from file:
     ./Mg.upf
     MD5 check sum: 4c04d8c6e0476e83eaecaf72fa8acc4d
     Pseudo is Norm-conserving, Zval = 10.0
     Generated using ONCVPSP code by D. R. Hamann
     Using radial grid of 1510 points,  4 beta functions with:
                l(1) =   0
                l(2) =   0
                l(3) =   1
                l(4) =   1

     PseudoPot. # 2 for O  read from file:
     ./O.upf
     MD5 check sum: 3e3f909f7470e8921608ab6b1f57bbae
     Pseudo is Norm-conserving + core correction, Zval =  6.0
     Generated using ONCVPSP code by D. R. Hamann
     Using radial grid of  936 points,  5 beta functions with:
                l(1) =   0
                l(2) =   0
                l(3) =   1
                l(4) =   1
                l(5) =   2

     atomic species   valence    mass     pseudopotential
        Mg            10.00    24.30500     Mg( 1.00)
        O              6.00    15.99900     O ( 1.00)

     No symmetry found

   Cartesian axes

     site n.     atom                  positions (alat units)
         1           Mg  tau(   1) = (   0.0000000   0.0000000   0.0000000  )
         2           Mg  tau(   2) = (   0.0000000   0.5000000   0.5000000  )
         3           Mg  tau(   3) = (   0.5000000   0.0000000   0.5000000  )
         4           Mg  tau(   4) = (   0.5000000   0.5000000   0.0000000  )
         5           O   tau(   5) = (   0.5000000   0.5000000   0.5000000  )
         6           O   tau(   6) = (   0.5000000   0.0000000   0.0000000  )
         7           O   tau(   7) = (   0.0000000   0.5000000   0.0000000  )
         8           O   tau(   8) = (   0.0000000   0.0000000   0.5000000  )

     number of k points=    63  Gaussian smearing, width (Ry)=  0.0050
                       cart. coord. in units 2pi/alat
        k(    1) = (   0.0000000   0.0000000   0.0000000), wk =   0.0160000
        k(    2) = (   0.0000000   0.0000000   0.2000000), wk =   0.0320000
        k(    3) = (   0.0000000   0.0000000   0.4000000), wk =   0.0320000
        k(    4) = (   0.0000000   0.2000000   0.0000000), wk =   0.0320000
        k(    5) = (   0.0000000   0.2000000   0.2000000), wk =   0.0320000
        k(    6) = (   0.0000000   0.2000000   0.4000000), wk =   0.0320000
        k(    7) = (   0.0000000   0.2000000  -0.4000000), wk =   0.0320000
        k(    8) = (   0.0000000   0.2000000  -0.2000000), wk =   0.0320000
        k(    9) = (   0.0000000   0.4000000   0.0000000), wk =   0.0320000
        k(   10) = (   0.0000000   0.4000000   0.2000000), wk =   0.0320000
        k(   11) = (   0.0000000   0.4000000   0.4000000), wk =   0.0320000
        k(   12) = (   0.0000000   0.4000000  -0.4000000), wk =   0.0320000
        k(   13) = (   0.0000000   0.4000000  -0.2000000), wk =   0.0320000
        k(   14) = (   0.2000000   0.0000000   0.0000000), wk =   0.0320000
        k(   15) = (   0.2000000   0.0000000   0.2000000), wk =   0.0320000
        k(   16) = (   0.2000000   0.0000000   0.4000000), wk =   0.0320000
        k(   17) = (   0.2000000   0.0000000  -0.4000000), wk =   0.0320000
        k(   18) = (   0.2000000   0.0000000  -0.2000000), wk =   0.0320000
        k(   19) = (   0.2000000   0.2000000   0.0000000), wk =   0.0320000
        k(   20) = (   0.2000000   0.2000000   0.2000000), wk =   0.0320000
        k(   21) = (   0.2000000   0.2000000   0.4000000), wk =   0.0320000
        k(   22) = (   0.2000000   0.2000000  -0.4000000), wk =   0.0320000
        k(   23) = (   0.2000000   0.2000000  -0.2000000), wk =   0.0320000
        k(   24) = (   0.2000000   0.4000000   0.0000000), wk =   0.0320000
        k(   25) = (   0.2000000   0.4000000   0.2000000), wk =   0.0320000
        k(   26) = (   0.2000000   0.4000000   0.4000000), wk =   0.0320000
        k(   27) = (   0.2000000   0.4000000  -0.4000000), wk =   0.0320000
        k(   28) = (   0.2000000   0.4000000  -0.2000000), wk =   0.0320000
        k(   29) = (   0.2000000  -0.4000000   0.0000000), wk =   0.0320000
        k(   30) = (   0.2000000  -0.4000000   0.2000000), wk =   0.0320000
        k(   31) = (   0.2000000  -0.4000000   0.4000000), wk =   0.0320000
        k(   32) = (   0.2000000  -0.4000000  -0.4000000), wk =   0.0320000
        k(   33) = (   0.2000000  -0.4000000  -0.2000000), wk =   0.0320000
        k(   34) = (   0.2000000  -0.2000000   0.0000000), wk =   0.0320000
        k(   35) = (   0.2000000  -0.2000000   0.2000000), wk =   0.0320000
        k(   36) = (   0.2000000  -0.2000000   0.4000000), wk =   0.0320000
        k(   37) = (   0.2000000  -0.2000000  -0.4000000), wk =   0.0320000
        k(   38) = (   0.2000000  -0.2000000  -0.2000000), wk =   0.0320000
        k(   39) = (   0.4000000   0.0000000   0.0000000), wk =   0.0320000
        k(   40) = (   0.4000000   0.0000000   0.2000000), wk =   0.0320000
        k(   41) = (   0.4000000   0.0000000   0.4000000), wk =   0.0320000
        k(   42) = (   0.4000000   0.0000000  -0.4000000), wk =   0.0320000
        k(   43) = (   0.4000000   0.0000000  -0.2000000), wk =   0.0320000
        k(   44) = (   0.4000000   0.2000000   0.0000000), wk =   0.0320000
        k(   45) = (   0.4000000   0.2000000   0.2000000), wk =   0.0320000
        k(   46) = (   0.4000000   0.2000000   0.4000000), wk =   0.0320000
        k(   47) = (   0.4000000   0.2000000  -0.4000000), wk =   0.0320000
        k(   48) = (   0.4000000   0.2000000  -0.2000000), wk =   0.0320000
        k(   49) = (   0.4000000   0.4000000   0.0000000), wk =   0.0320000
        k(   50) = (   0.4000000   0.4000000   0.2000000), wk =   0.0320000
        k(   51) = (   0.4000000   0.4000000   0.4000000), wk =   0.0320000
        k(   52) = (   0.4000000   0.4000000  -0.4000000), wk =   0.0320000
        k(   53) = (   0.4000000   0.4000000  -0.2000000), wk =   0.0320000
        k(   54) = (   0.4000000  -0.4000000   0.0000000), wk =   0.0320000
        k(   55) = (   0.4000000  -0.4000000   0.2000000), wk =   0.0320000
        k(   56) = (   0.4000000  -0.4000000   0.4000000), wk =   0.0320000
        k(   57) = (   0.4000000  -0.4000000  -0.4000000), wk =   0.0320000
        k(   58) = (   0.4000000  -0.4000000  -0.2000000), wk =   0.0320000
        k(   59) = (   0.4000000  -0.2000000   0.0000000), wk =   0.0320000
        k(   60) = (   0.4000000  -0.2000000   0.2000000), wk =   0.0320000
        k(   61) = (   0.4000000  -0.2000000   0.4000000), wk =   0.0320000
        k(   62) = (   0.4000000  -0.2000000  -0.4000000), wk =   0.0320000
        k(   63) = (   0.4000000  -0.2000000  -0.2000000), wk =   0.0320000

     Initial potential from superposition of free atoms

     starting charge   63.99678, renormalised to   64.00000
     Starting wfcs are   36 randomized atomic wfcs +    2 random wfcs

     Self-consistent Calculation

     iteration #  1     ecut=   100.00 Ry     beta= 0.50
     Davidson diagonalization with overlap
     ethr =  1.00E-02,  avg # of iterations =  4.0

     total energy              =    -608.03223956 Ry
     estimated scf accuracy    <       1.57336964 Ry

[...]

     End of self-consistent calculation

          k = 0.0000 0.0000 0.0000 (  8409 PWs)   bands (ev):

   -64.2904 -64.2789 -64.2789 -64.2789 -31.1156 -31.1156 -31.1156 -31.0716
   -31.0716 -31.0716 -31.0716 -31.0716 -31.0716 -31.0431 -31.0431 -31.0431
    -9.1286  -7.5854  -7.5854  -7.5853   4.0215   4.0215   4.0215   6.7284
     6.7284   6.7284   6.7284   6.7284   6.7285   8.0632   8.0632   8.0632
    12.8379  17.2907  17.2907  18.0836  18.0836  18.0836

[...]

     the Fermi energy is    10.0544 ev

!    total energy              =    -608.51633070 Ry
     estimated scf accuracy    <       0.00000002 Ry
     smearing contrib. (-TS)   =      -0.00000000 Ry
     internal energy E=F+TS    =    -608.51633070 Ry

     The total energy is F=E-TS. E is the sum of the following terms:
     one-electron contribution =    -297.28485513 Ry
     hartree contribution      =     166.02663794 Ry
     xc contribution           =     -97.98764698 Ry
     ewald contribution        =    -379.16241501 Ry
     DFT-D3 Dispersion         =      -0.10805152 Ry

     convergence has been achieved in   8 iterations

     Forces acting on atoms (cartesian axes, Ry/au):

     atom    1 type  1   force =     0.00000019    0.00000064   -0.00000025
     atom    2 type  1   force =     0.00000006    0.00000052   -0.00000001
     atom    3 type  1   force =    -0.00000013    0.00000001   -0.00000018
     atom    4 type  1   force =    -0.00000007   -0.00000112    0.00000051
     atom    5 type  2   force =    -0.00000020    0.00000007   -0.00000054
     atom    6 type  2   force =     0.00000009    0.00000073    0.00000016
     atom    7 type  2   force =    -0.00000012   -0.00000046    0.00000006
     atom    8 type  2   force =     0.00000019   -0.00000039    0.00000026

     Total force =     0.000002     Total SCF correction =     0.000016
     SCF correction compared to forces is large: reduce conv_thr to get better values

     Computing stress (Cartesian axis) and pressure

          total   stress  (Ry/bohr**3)                   (kbar)     P=       12.04
   0.00008183   0.00000000   0.00000000           12.04        0.00        0.00
   0.00000000   0.00008183  -0.00000000            0.00       12.04       -0.00
   0.00000000  -0.00000000   0.00008183            0.00       -0.00       12.04

     BFGS Geometry Optimization

     number of scf cycles    =   1
     number of bfgs steps    =   0

     enthalpy new            =    -608.8588812460 Ry

     new trust radius        =       0.0854837847 bohr
     new conv_thr            =       0.0000010000 Ry

     new unit-cell volume =    533.24473 a.u.^3 (    79.01872 Ang^3 )
     density =      3.38787 g/cm^3

CELL_PARAMETERS (angstrom)
   4.291179405   0.000000098   0.000000009
   0.000000098   4.291179216  -0.000000077
   0.000000009  -0.000000077   4.291179124

ATOMIC_POSITIONS (angstrom)
Mg            0.0000001048        0.0000003465       -0.0000001357
Mg            0.0000000861        2.1455898477        2.1455895155
Mg            2.1455896352        0.0000000144        2.1455894677
Mg            2.1455897137        2.1455890537        0.0000002420
O             2.1455896459        2.1455896556        2.1455892373
O             2.1455897486        0.0000004441        0.0000000888
O            -0.0000000169        2.1455893601       -0.0000000087
O             0.0000001068       -0.0000002473        2.1455897038

     NEW-OLD atomic charge density approx. for the potential
     extrapolated charge   67.52067, renormalised to   64.00000

[...]

          k =-0.0000 0.0000 0.1963 (  8501 PWs)   bands (ev):

[...]

     enthalpy old            =    -608.8588812460 Ry
     enthalpy new            =    -608.8726954766 Ry

     CASE: enthalpy_new < enthalpy_old

[...]

     number of scf cycles    =   3
     number of bfgs steps    =   2

     enthalpy old            =    -608.8726954766 Ry
     enthalpy new            =    -608.8741110130 Ry

     CASE: enthalpy_new < enthalpy_old

     new trust radius        =       0.0025156919 bohr
     new conv_thr            =       0.0000000100 Ry

     new unit-cell volume =    547.17525 a.u.^3 (    81.08301 Ang^3 )
     density =      3.30162 g/cm^3

[...]

ATOMIC_POSITIONS (angstrom)
Mg            0.0000001922        0.0000002495        0.0000000064
Mg           -0.0000002905        2.1641134703        2.1641131949
Mg            2.1641133134       -0.0000000315        2.1641128134
Mg            2.1641130001        2.1641125094       -0.0000000072
O             2.1641130931        2.1641126884        2.1641135563
O             2.1641130609        0.0000002327       -0.0000000300
O            -0.0000001136        2.1641138836       -0.0000000699
O            -0.0000000655       -0.0000006094        2.1641133994

     NEW-OLD atomic charge density approx. for the potential
     extrapolated charge   64.10321, renormalised to   64.00000

[...]

     bfgs converged in   4 scf cycles and   3 bfgs steps
     (criteria: energy <  1.0E-04 Ry, force <  1.0E-03Ry/Bohr, cell <  5.0E-01kbar)

     End of BFGS Geometry Optimization

     Final enthalpy =    -608.8741166624 Ry

     File ./tmp/pwscf.bfgs deleted, as requested
Begin final coordinates
     new unit-cell volume =    547.17525 a.u.^3 (    81.08301 Ang^3 )
     density =      3.30162 g/cm^3

CELL_PARAMETERS (angstrom)
   4.328226529  -0.000000283  -0.000000152
  -0.000000283   4.328225971   0.000000508
  -0.000000152   0.000000508   4.328226075

ATOMIC_POSITIONS (angstrom)
Mg            0.0000001922        0.0000002495        0.0000000064
Mg           -0.0000002905        2.1641134703        2.1641131949
Mg            2.1641133134       -0.0000000315        2.1641128134
Mg            2.1641130001        2.1641125094       -0.0000000072
O             2.1641130931        2.1641126884        2.1641135563
O             2.1641130609        0.0000002327       -0.0000000300
O            -0.0000001136        2.1641138836       -0.0000000699
O            -0.0000000655       -0.0000006094        2.1641133994
End final coordinates

     Final scf calculation at the relaxed structure.
     The G-vectors are recalculated for the final unit cell
     Results may differ from those at the preceding step.

     bravais-lattice index     =            0
     lattice parameter (alat)  =       7.9576  a.u.
     unit-cell volume          =     547.1753 (a.u.)^3
     number of atoms/cell      =            8
     number of atomic types    =            2
     number of electrons       =        64.00
     number of Kohn-Sham states=           38
     kinetic-energy cutoff     =     100.0000  Ry
     charge density cutoff     =     400.0000  Ry
     convergence threshold     =      1.0E-08
     mixing beta               =       0.5000
     number of iterations used =            8  plain     mixing
     Exchange-correlation= PBE
                           (   1   4   3   4   0   0   0)

     celldm(1)=   7.957637  celldm(2)=   0.000000  celldm(3)=   0.000000
     celldm(4)=   0.000000  celldm(5)=   0.000000  celldm(6)=   0.000000

     crystal axes: (cart. coord. in units of alat)
               a(1) = (   1.027838  -0.000000  -0.000000 )
               a(2) = (  -0.000000   1.027838   0.000000 )
               a(3) = (  -0.000000   0.000000   1.027838 )

     reciprocal axes: (cart. coord. in units 2 pi/alat)
               b(1) = (  0.972916  0.000000  0.000000 )
               b(2) = (  0.000000  0.972916 -0.000000 )
               b(3) = (  0.000000 -0.000000  0.972916 )

     PseudoPot. # 1 for Mg read from file:
     ./Mg.upf
     MD5 check sum: 4c04d8c6e0476e83eaecaf72fa8acc4d
     Pseudo is Norm-conserving, Zval = 10.0
     Generated using ONCVPSP code by D. R. Hamann
     Using radial grid of 1510 points,  4 beta functions with:
                l(1) =   0
                l(2) =   0
                l(3) =   1
                l(4) =   1

     PseudoPot. # 2 for O  read from file:
     ./O.upf
     MD5 check sum: 3e3f909f7470e8921608ab6b1f57bbae
     Pseudo is Norm-conserving + core correction, Zval =  6.0
     Generated using ONCVPSP code by D. R. Hamann
     Using radial grid of  936 points,  5 beta functions with:
                l(1) =   0
                l(2) =   0
                l(3) =   1
                l(4) =   1
                l(5) =   2

     atomic species   valence    mass     pseudopotential
        Mg            10.00    24.30500     Mg( 1.00)
        O              6.00    15.99900     O ( 1.00)

     No symmetry found

   Cartesian axes

     site n.     atom                  positions (alat units)
         1           Mg  tau(   1) = (   0.0000000   0.0000001   0.0000000  )
         2           Mg  tau(   2) = (  -0.0000001   0.5139191   0.5139191  )
         3           Mg  tau(   3) = (   0.5139191  -0.0000000   0.5139190  )
         4           Mg  tau(   4) = (   0.5139190   0.5139189  -0.0000000  )
         5           O   tau(   5) = (   0.5139190   0.5139189   0.5139192  )
         6           O   tau(   6) = (   0.5139190   0.0000001  -0.0000000  )
         7           O   tau(   7) = (  -0.0000000   0.5139192  -0.0000000  )
         8           O   tau(   8) = (  -0.0000000  -0.0000001   0.5139191  )

     number of k points=    63  Gaussian smearing, width (Ry)=  0.0050
                       cart. coord. in units 2pi/alat
        k(    1) = (   0.0000000   0.0000000   0.0000000), wk =   0.0160000
        k(    2) = (   0.0000000  -0.0000000   0.1945832), wk =   0.0320000
        k(    3) = (   0.0000000  -0.0000000   0.3891664), wk =   0.0320000
        k(    4) = (   0.0000000   0.1945832  -0.0000000), wk =   0.0320000
        k(    5) = (   0.0000000   0.1945832   0.1945832), wk =   0.0320000
        k(    6) = (   0.0000000   0.1945831   0.3891663), wk =   0.0320000
        k(    7) = (  -0.0000000   0.1945832  -0.3891664), wk =   0.0320000
        k(    8) = (   0.0000000   0.1945832  -0.1945832), wk =   0.0320000
        k(    9) = (   0.0000000   0.3891664  -0.0000000), wk =   0.0320000
        k(   10) = (   0.0000000   0.3891663   0.1945831), wk =   0.0320000
        k(   11) = (   0.0000000   0.3891663   0.3891663), wk =   0.0320000
        k(   12) = (   0.0000000   0.3891664  -0.3891664), wk =   0.0320000
        k(   13) = (   0.0000000   0.3891664  -0.1945832), wk =   0.0320000
        k(   14) = (   0.1945832   0.0000000   0.0000000), wk =   0.0320000
        k(   15) = (   0.1945832  -0.0000000   0.1945832), wk =   0.0320000
        k(   16) = (   0.1945832  -0.0000000   0.3891664), wk =   0.0320000
        k(   17) = (   0.1945831   0.0000001  -0.3891664), wk =   0.0320000
        k(   18) = (   0.1945832   0.0000000  -0.1945832), wk =   0.0320000
        k(   19) = (   0.1945832   0.1945832  -0.0000000), wk =   0.0320000
        k(   20) = (   0.1945832   0.1945832   0.1945832), wk =   0.0320000
        k(   21) = (   0.1945832   0.1945832   0.3891663), wk =   0.0320000
        k(   22) = (   0.1945832   0.1945832  -0.3891664), wk =   0.0320000
        k(   23) = (   0.1945832   0.1945832  -0.1945832), wk =   0.0320000
        k(   24) = (   0.1945832   0.3891664  -0.0000000), wk =   0.0320000
        k(   25) = (   0.1945832   0.3891664   0.1945831), wk =   0.0320000
        k(   26) = (   0.1945832   0.3891663   0.3891663), wk =   0.0320000
        k(   27) = (   0.1945832   0.3891664  -0.3891664), wk =   0.0320000
        k(   28) = (   0.1945832   0.3891664  -0.1945832), wk =   0.0320000
        k(   29) = (   0.1945831  -0.3891664   0.0000001), wk =   0.0320000
        k(   30) = (   0.1945831  -0.3891664   0.1945832), wk =   0.0320000
        k(   31) = (   0.1945831  -0.3891664   0.3891664), wk =   0.0320000
        k(   32) = (   0.1945831  -0.3891663  -0.3891663), wk =   0.0320000
        k(   33) = (   0.1945831  -0.3891663  -0.1945831), wk =   0.0320000
        k(   34) = (   0.1945831  -0.1945832   0.0000000), wk =   0.0320000
        k(   35) = (   0.1945832  -0.1945832   0.1945832), wk =   0.0320000
        k(   36) = (   0.1945832  -0.1945832   0.3891664), wk =   0.0320000
        k(   37) = (   0.1945831  -0.1945831  -0.3891663), wk =   0.0320000
        k(   38) = (   0.1945831  -0.1945832  -0.1945832), wk =   0.0320000
        k(   39) = (   0.3891663   0.0000000   0.0000000), wk =   0.0320000
        k(   40) = (   0.3891663   0.0000000   0.1945832), wk =   0.0320000
        k(   41) = (   0.3891663  -0.0000000   0.3891664), wk =   0.0320000
        k(   42) = (   0.3891663   0.0000001  -0.3891663), wk =   0.0320000
        k(   43) = (   0.3891663   0.0000000  -0.1945832), wk =   0.0320000
        k(   44) = (   0.3891663   0.1945832  -0.0000000), wk =   0.0320000
        k(   45) = (   0.3891663   0.1945832   0.1945832), wk =   0.0320000
        k(   46) = (   0.3891663   0.1945832   0.3891664), wk =   0.0320000
        k(   47) = (   0.3891663   0.1945833  -0.3891664), wk =   0.0320000
        k(   48) = (   0.3891663   0.1945832  -0.1945832), wk =   0.0320000
        k(   49) = (   0.3891663   0.3891664  -0.0000000), wk =   0.0320000
        k(   50) = (   0.3891664   0.3891664   0.1945831), wk =   0.0320000
        k(   51) = (   0.3891664   0.3891664   0.3891663), wk =   0.0320000
        k(   52) = (   0.3891663   0.3891664  -0.3891664), wk =   0.0320000
        k(   53) = (   0.3891663   0.3891664  -0.1945832), wk =   0.0320000
        k(   54) = (   0.3891663  -0.3891663   0.0000001), wk =   0.0320000
        k(   55) = (   0.3891663  -0.3891664   0.1945832), wk =   0.0320000
        k(   56) = (   0.3891663  -0.3891664   0.3891664), wk =   0.0320000
        k(   57) = (   0.3891663  -0.3891663  -0.3891663), wk =   0.0320000
        k(   58) = (   0.3891663  -0.3891663  -0.1945831), wk =   0.0320000
        k(   59) = (   0.3891663  -0.1945832   0.0000000), wk =   0.0320000
        k(   60) = (   0.3891663  -0.1945832   0.1945832), wk =   0.0320000
        k(   61) = (   0.3891663  -0.1945832   0.3891664), wk =   0.0320000
        k(   62) = (   0.3891663  -0.1945831  -0.3891663), wk =   0.0320000
        k(   63) = (   0.3891663  -0.1945831  -0.1945831), wk =   0.0320000

     Initial potential from superposition of free atoms

     starting charge   63.99678, renormalised to   64.00000
     Starting wfcs are   36 randomized atomic wfcs +    2 random wfcs

     Self-consistent Calculation

     iteration #  1     ecut=   100.00 Ry     beta= 0.50
     Davidson diagonalization with overlap
     c_bands:  2 eigenvalues not converged
     c_bands:  2 eigenvalues not converged
     c_bands:  1 eigenvalues not converged
     c_bands:  2 eigenvalues not converged
     c_bands:  1 eigenvalues not converged
     c_bands:  1 eigenvalues not converged
     ethr =  1.00E-06,  avg # of iterations = 12.3

[...]

     total energy              =    -608.50220718 Ry
     estimated scf accuracy    <       0.00000022 Ry

     iteration #  9     ecut=   100.00 Ry     beta= 0.50
     Davidson diagonalization with overlap
     ethr =  3.40E-10,  avg # of iterations =  2.0

     End of self-consistent calculation

[...]

          k =-0.0000 0.1946-0.3892 (  9231 PWs)   bands (ev):

[...]

          k = 0.3892-0.1946-0.1946 (  9237 PWs)   bands (ev):

   -65.5565 -65.5546 -65.5531 -65.5531 -32.3547 -32.3547 -32.3507 -32.3410
   -32.3332 -32.3332 -32.3213 -32.3213 -32.3208 -32.3189 -32.3137 -32.3124
    -9.0764  -8.7344  -8.4379  -8.4379   3.6583   3.6583   3.8157   4.3834
     5.0672   5.0672   5.9847   6.0869   6.0869   6.3150   6.6143   6.6221
    14.0188  15.4055  16.6941  16.6941  18.2906  18.2906

     the Fermi energy is     8.2699 ev

!    total energy              =    -608.50220722 Ry
     estimated scf accuracy    <          5.9E-09 Ry
     smearing contrib. (-TS)   =      -0.00000000 Ry
     internal energy E=F+TS    =    -608.50220722 Ry

     The total energy is F=E-TS. E is the sum of the following terms:
     one-electron contribution =    -313.19043081 Ry
     hartree contribution      =     171.33189107 Ry
     xc contribution           =     -97.65198853 Ry
     ewald contribution        =    -368.89313517 Ry
     DFT-D3 Dispersion         =      -0.09854378 Ry

     convergence has been achieved in   9 iterations

     Forces acting on atoms (cartesian axes, Ry/au):

     atom    1 type  1   force =     0.00000009   -0.00000030    0.00000005
     atom    2 type  1   force =    -0.00000013   -0.00000007   -0.00000010
     atom    3 type  1   force =    -0.00000009    0.00000021    0.00000022
     atom    4 type  1   force =     0.00000004    0.00000011   -0.00000000
     atom    5 type  2   force =     0.00000003    0.00000008   -0.00000014
     atom    6 type  2   force =     0.00000005   -0.00000004   -0.00000002
     atom    7 type  2   force =     0.00000001   -0.00000030    0.00000020
     atom    8 type  2   force =    -0.00000001    0.00000030   -0.00000021

     Total force =     0.000001     Total SCF correction =     0.000003
     SCF correction compared to forces is large: reduce conv_thr to get better values

     Computing stress (Cartesian axis) and pressure

          total   stress  (Ry/bohr**3)                   (kbar)     P=      -99.83
  -0.00067862   0.00000000  -0.00000000          -99.83        0.00       -0.00
   0.00000000  -0.00067862  -0.00000000            0.00      -99.83       -0.00
  -0.00000000  -0.00000000  -0.00067862           -0.00       -0.00      -99.83

     General routines

     Parallel routines

   This run was terminated on:  13:38:37   4Feb2024

   JOB DONE.