     Program PWSCF v.6.6 starts on  4Feb2024 at 13:34:19

     R & G space division:  proc/nbgrp/npool/nimage =      16
     Fft bands division:     nmany     =       1
     Waiting for input...
     Reading input from standard input

     Current dimensions of program PWSCF are:
     Max number of different atomic species (ntypx) = 10
     Max number of k-points (npk) =  40000
     Max angular momentum in pseudopotentials (lmaxx) =  3

     IMPORTANT: XC functional enforced from input :
     Exchange-correlation= PBE
                           (   1   4   3   4   0   0   0)
     Any further DFT definition will be discarded
     Please, verify this is what you really want

     Parameters for DFT-D3 Dispersion Correction:
       Reference C6 values for interpolation:

         atom   Coordination number   C6
         O          0.000            31.01
         O          0.993            25.63
         O          1.989            20.74
         Mg         0.000          1366.75
         Mg         0.963           902.54
         Mg         1.950           351.12

       Values used:

         atom   Coordination number  R0_AB[au]  C6      C8
         Mg        16.507            3.292    351.12  31436.69
         Mg        16.507            3.292    351.12  31436.69
         Mg        16.507            3.292    351.12  31436.69
         Mg        16.507            3.292    351.12  31436.69
         O          5.817            2.345     20.74    418.58
         O          5.817            2.345     20.74    418.58
         O          5.817            2.345     20.74    418.58
         O          5.817            2.345     20.74    418.58

         Molecular C6 ( Ry / a.u.^6 ) =      8251.69

     Subspace diagonalization in iterative solution of the eigenvalue problem:
     a serial algorithm will be used

     Found symmetry operation: I + (  0.0000 -0.5000 -0.5000)
     This is a supercell, fractional translations are disabled
     Message from routine setup:
     using ibrav=0 with symmetry is DISCOURAGED, use correct ibrav instead

     bravais-lattice index     =            0
     lattice parameter (alat)  =       7.9640  a.u.
     unit-cell volume          =     503.1030 (a.u.)^3
     number of atoms/cell      =            8
     number of atomic types    =            2
     number of electrons       =        64.00
     number of Kohn-Sham states=           38
     kinetic-energy cutoff     =     100.0000  Ry
     charge density cutoff     =     400.0000  Ry
     convergence threshold     =      1.0E-06
     mixing beta               =       0.5000
     number of iterations used =            8  plain     mixing
     Exchange-correlation= PBE
                           (   1   4   3   4   0   0   0)
     nstep                     =          100

     celldm(1)=   7.964000  celldm(2)=   0.000000  celldm(3)=   0.000000
     celldm(4)=   0.000000  celldm(5)=   0.000000  celldm(6)=   0.000000

     crystal axes: (cart. coord. in units of alat)
               a(1) = (   0.999201   0.039968   0.000000 )
               a(2) = (   0.039968   0.999201   0.000000 )
               a(3) = (   0.000000   0.000000   0.999201 )

     reciprocal axes: (cart. coord. in units 2 pi/alat)
               b(1) = (  1.002404 -0.040096  0.000000 )
               b(2) = ( -0.040096  1.002404  0.000000 )
               b(3) = (  0.000000  0.000000  1.000800 )

     PseudoPot. # 1 for Mg read from file:
     ./Mg.upf
     MD5 check sum: 4c04d8c6e0476e83eaecaf72fa8acc4d
     Pseudo is Norm-conserving, Zval = 10.0
     Generated using ONCVPSP code by D. R. Hamann
     Using radial grid of 1510 points,  4 beta functions with:
                l(1) =   0
                l(2) =   0
                l(3) =   1
                l(4) =   1

     PseudoPot. # 2 for O  read from file:
     ./O.upf
     MD5 check sum: 3e3f909f7470e8921608ab6b1f57bbae
     Pseudo is Norm-conserving + core correction, Zval =  6.0
     Generated using ONCVPSP code by D. R. Hamann
     Using radial grid of  936 points,  5 beta functions with:
                l(1) =   0
                l(2) =   0
                l(3) =   1
                l(4) =   1
                l(5) =   2

     atomic species   valence    mass     pseudopotential
        Mg            10.00    24.30500     Mg( 1.00)
        O              6.00    15.99900     O ( 1.00)

      8 Sym. Ops., with inversion, found

   Cartesian axes

     site n.     atom                  positions (alat units)
         1           Mg  tau(   1) = (   0.0000000   0.0000000   0.0000000  )
         2           Mg  tau(   2) = (   0.0199840   0.4996005   0.4996005  )
         3           Mg  tau(   3) = (   0.4996005   0.0199840   0.4996005  )
         4           Mg  tau(   4) = (   0.5195845   0.5195845   0.0000000  )
         5           O   tau(   5) = (   0.5195845   0.5195845   0.4996005  )
         6           O   tau(   6) = (   0.4996005   0.0199840   0.0000000  )
         7           O   tau(   7) = (   0.0199840   0.4996005   0.0000000  )
         8           O   tau(   8) = (   0.0000000   0.0000000   0.4996005  )

     number of k points=    27  Gaussian smearing, width (Ry)=  0.0050
                       cart. coord. in units 2pi/alat
        k(    1) = (   0.0000000   0.0000000   0.0000000), wk =   0.0160000
        k(    2) = (   0.0000000   0.0000000   0.2001599), wk =   0.0320000
        k(    3) = (   0.0000000   0.0000000   0.4003199), wk =   0.0320000
        k(    4) = (  -0.0080192   0.2004807   0.0000000), wk =   0.0640000
        k(    5) = (  -0.0080192   0.2004807   0.2001599), wk =   0.1280000
        k(    6) = (  -0.0080192   0.2004807   0.4003199), wk =   0.1280000
        k(    7) = (  -0.0160385   0.4009614   0.0000000), wk =   0.0640000
        k(    8) = (  -0.0160385   0.4009614   0.2001599), wk =   0.1280000
        k(    9) = (  -0.0160385   0.4009614   0.4003199), wk =   0.1280000
        k(   10) = (   0.1924615   0.1924615   0.0000000), wk =   0.0320000
        k(   11) = (   0.1924615   0.1924615   0.2001599), wk =   0.0640000
        k(   12) = (   0.1924615   0.1924615   0.4003199), wk =   0.0640000
        k(   13) = (   0.1844422   0.3929422   0.0000000), wk =   0.0640000
        k(   14) = (   0.1844422   0.3929422   0.2001599), wk =   0.1280000
        k(   15) = (   0.1844422   0.3929422   0.4003199), wk =   0.1280000
        k(   16) = (   0.2165192  -0.4089806   0.0000000), wk =   0.0640000
        k(   17) = (   0.2165192  -0.4089806   0.2001599), wk =   0.1280000
        k(   18) = (   0.2165192  -0.4089806   0.4003199), wk =   0.1280000
        k(   19) = (   0.2084999  -0.2084999   0.0000000), wk =   0.0320000
        k(   20) = (   0.2084999  -0.2084999   0.2001599), wk =   0.0640000
        k(   21) = (   0.2084999  -0.2084999   0.4003199), wk =   0.0640000
        k(   22) = (   0.3849230   0.3849230   0.0000000), wk =   0.0320000
        k(   23) = (   0.3849230   0.3849230   0.2001599), wk =   0.0640000
        k(   24) = (   0.3849230   0.3849230   0.4003199), wk =   0.0640000
        k(   25) = (   0.4169999  -0.4169999   0.0000000), wk =   0.0320000
        k(   26) = (   0.4169999  -0.4169999   0.2001599), wk =   0.0640000
        k(   27) = (   0.4169999  -0.4169999   0.4003199), wk =   0.0640000

     Initial potential from superposition of free atoms

     starting charge   63.99678, renormalised to   64.00000
     Starting wfcs are   36 randomized atomic wfcs +    2 random wfcs

     Self-consistent Calculation

     iteration #  1     ecut=   100.00 Ry     beta= 0.50
     Davidson diagonalization with overlap
     ethr =  1.00E-02,  avg # of iterations =  4.2

     total energy              =    -608.01553613 Ry
     estimated scf accuracy    <       1.57753182 Ry

[...]

     total energy              =    -608.50016136 Ry
     estimated scf accuracy    <       0.00000255 Ry

     iteration #  8     ecut=   100.00 Ry     beta= 0.50
     Davidson diagonalization with overlap
     ethr =  2.78E-09,  avg # of iterations =  2.3

     End of self-consistent calculation

          k = 0.0000 0.0000 0.0000 (  8491 PWs)   bands (ev):

   -64.2913 -64.2799 -64.2791 -64.2790 -31.1384 -31.1384 -31.1139 -31.0868
   -31.0694 -31.0694 -31.0619 -31.0571 -31.0553 -31.0552 -31.0418 -31.0251
    -9.1004  -7.5589  -7.5303  -7.5302   4.0449   4.0595   4.0595   6.2992
     6.7631   6.7631   6.7752   6.7753   7.2650   7.8182   8.0795   8.4217
    12.8106  16.7006  17.3253  18.1182  18.1182  18.8126

[...]

          k =-0.0080 0.2005 0.0000 (  8499 PWs)   bands (ev):

[...]

          k =-0.0160 0.4010 0.4003 (  8500 PWs)   bands (ev):

[...]

          k = 0.4170-0.4170 0.4003 (  8469 PWs)   bands (ev):

   -64.2834 -64.2834 -64.2817 -64.2806 -31.1481 -31.1451 -31.1085 -31.1085
   -31.0766 -31.0766 -31.0638 -31.0576 -31.0406 -31.0406 -31.0351 -31.0321
    -7.8412  -7.8411  -7.8300  -7.6619   3.5443   3.5443   3.8387   4.0123
     7.0695   7.1166   7.2192   7.2733   7.2733   7.5075   7.5623   7.5624
    15.7261  16.1771  16.7297  16.7298  20.1559  20.1559

     the Fermi energy is     9.8921 ev

!    total energy              =    -608.50016186 Ry
     estimated scf accuracy    <       0.00000003 Ry
     smearing contrib. (-TS)   =      -0.00000000 Ry
     internal energy E=F+TS    =    -608.50016186 Ry

     The total energy is F=E-TS. E is the sum of the following terms:
     one-electron contribution =    -296.73935700 Ry
     hartree contribution      =     165.80080873 Ry
     xc contribution           =     -97.98726781 Ry
     ewald contribution        =    -379.46606921 Ry
     DFT-D3 Dispersion         =      -0.10827655 Ry

     convergence has been achieved in   8 iterations

     Forces acting on atoms (cartesian axes, Ry/au):

     atom    1 type  1   force =     0.00000000    0.00000000    0.00000000
     atom    2 type  1   force =     0.00000000    0.00000000    0.00000000
     atom    3 type  1   force =     0.00000000    0.00000000    0.00000000
     atom    4 type  1   force =     0.00000000    0.00000000    0.00000000
     atom    5 type  2   force =     0.00000000    0.00000000    0.00000000
     atom    6 type  2   force =     0.00000000    0.00000000    0.00000000
     atom    7 type  2   force =     0.00000000    0.00000000    0.00000000
     atom    8 type  2   force =     0.00000000    0.00000000    0.00000000

     Total force =     0.000000     Total SCF correction =     0.000000

     BFGS Geometry Optimization

     bfgs converged in   1 scf cycles and   0 bfgs steps
     (criteria: energy <  1.0E-04 Ry, force <  1.0E-03 Ry/Bohr)

     End of BFGS Geometry Optimization

     Final energy   =    -608.5001618552 Ry
Begin final coordinates

ATOMIC_POSITIONS (angstrom)
Mg            0.0000000000        0.0000000000        0.0000000000
Mg            0.0842200000        2.1055000000        2.1055000000
Mg            2.1055000000        0.0842200000        2.1055000000
Mg            2.1897200000        2.1897200000        0.0000000000
O             2.1897200000        2.1897200000        2.1055000000
O             2.1055000000        0.0842200000        0.0000000000
O             0.0842200000        2.1055000000        0.0000000000
O             0.0000000000        0.0000000000        2.1055000000
End final coordinates

     General routines

     Parallel routines

   This run was terminated on:  13:34:49   4Feb2024

   JOB DONE.