     Program PWSCF v.6.6 starts on  4Feb2024 at 13:34:49

     R & G space division:  proc/nbgrp/npool/nimage =      16
     Fft bands division:     nmany     =       1
     Waiting for input...
     Reading input from standard input

     Current dimensions of program PWSCF are:
     Max number of different atomic species (ntypx) = 10
     Max number of k-points (npk) =  40000
     Max angular momentum in pseudopotentials (lmaxx) =  3

     IMPORTANT: XC functional enforced from input :
     Exchange-correlation= PBE
                           (   1   4   3   4   0   0   0)
     Any further DFT definition will be discarded
     Please, verify this is what you really want

     Parameters for DFT-D3 Dispersion Correction:
       Reference C6 values for interpolation:

         atom   Coordination number   C6
         O          0.000            31.01
         O          0.993            25.63
         O          1.989            20.74
         Mg         0.000          1366.75
         Mg         0.963           902.54
         Mg         1.950           351.12

       Values used:

         atom   Coordination number  R0_AB[au]  C6      C8
         Mg        16.582            3.292    351.12  31436.69
         Mg        16.582            3.292    351.12  31436.69
         Mg        16.582            3.292    351.12  31436.69
         Mg        16.582            3.292    351.12  31436.69
         O          5.817            2.345     20.74    418.58
         O          5.817            2.345     20.74    418.58
         O          5.817            2.345     20.74    418.58
         O          5.817            2.345     20.74    418.58

         Molecular C6 ( Ry / a.u.^6 ) =      8251.69

     Subspace diagonalization in iterative solution of the eigenvalue problem:
     a serial algorithm will be used

     Found symmetry operation: I + (  0.0000 -0.5000 -0.5000)
     This is a supercell, fractional translations are disabled

     bravais-lattice index     =            0
     lattice parameter (alat)  =       7.9576  a.u.
     unit-cell volume          =     503.9092 (a.u.)^3
     number of atoms/cell      =            8
     number of atomic types    =            2
     number of electrons       =        64.00
     number of Kohn-Sham states=           38
     kinetic-energy cutoff     =     100.0000  Ry
     charge density cutoff     =     400.0000  Ry
     convergence threshold     =      1.0E-06
     mixing beta               =       0.5000
     number of iterations used =            8  plain     mixing
     Exchange-correlation= PBE
                           (   1   4   3   4   0   0   0)
     nstep                     =          100

     celldm(1)=   7.957637  celldm(2)=   0.000000  celldm(3)=   0.000000
     celldm(4)=   0.000000  celldm(5)=   0.000000  celldm(6)=   0.000000

     crystal axes: (cart. coord. in units of alat)
               a(1) = (   1.000000   0.000000   0.000000 )
               a(2) = (   0.000000   1.000000   0.000000 )
               a(3) = (   0.000000   0.000000   1.000000 )

     reciprocal axes: (cart. coord. in units 2 pi/alat)
               b(1) = (  1.000000  0.000000  0.000000 )
               b(2) = (  0.000000  1.000000  0.000000 )
               b(3) = (  0.000000  0.000000  1.000000 )

     PseudoPot. # 1 for Mg read from file:
     ./Mg.upf
     MD5 check sum: 4c04d8c6e0476e83eaecaf72fa8acc4d
     Pseudo is Norm-conserving, Zval = 10.0
     Generated using ONCVPSP code by D. R. Hamann
     Using radial grid of 1510 points,  4 beta functions with:
                l(1) =   0
                l(2) =   0
                l(3) =   1
                l(4) =   1

     PseudoPot. # 2 for O  read from file:
     ./O.upf
     MD5 check sum: 3e3f909f7470e8921608ab6b1f57bbae
     Pseudo is Norm-conserving + core correction, Zval =  6.0
     Generated using ONCVPSP code by D. R. Hamann
     Using radial grid of  936 points,  5 beta functions with:
                l(1) =   0
                l(2) =   0
                l(3) =   1
                l(4) =   1
                l(5) =   2

     atomic species   valence    mass     pseudopotential
        Mg            10.00    24.30500     Mg( 1.00)
        O              6.00    15.99900     O ( 1.00)

     No symmetry found

   Cartesian axes

     site n.     atom                  positions (alat units)
         1           Mg  tau(   1) = (   0.0000000   0.0000000   0.0000000  )
         2           Mg  tau(   2) = (   0.0000000   0.5000000   0.5000000  )
         3           Mg  tau(   3) = (   0.5000000   0.0000000   0.5000000  )
         4           Mg  tau(   4) = (   0.5000000   0.5000000   0.0000000  )
         5           O   tau(   5) = (   0.5000000   0.5000000   0.5000000  )
         6           O   tau(   6) = (   0.5000000   0.0000000   0.0000000  )
         7           O   tau(   7) = (   0.0000000   0.5000000   0.0000000  )
         8           O   tau(   8) = (   0.0000000   0.0000000   0.5000000  )

     number of k points=    63  Gaussian smearing, width (Ry)=  0.0050
                       cart. coord. in units 2pi/alat
        k(    1) = (   0.0000000   0.0000000   0.0000000), wk =   0.0160000
        k(    2) = (   0.0000000   0.0000000   0.2000000), wk =   0.0320000
        k(    3) = (   0.0000000   0.0000000   0.4000000), wk =   0.0320000
        k(    4) = (   0.0000000   0.2000000   0.0000000), wk =   0.0320000
        k(    5) = (   0.0000000   0.2000000   0.2000000), wk =   0.0320000
        k(    6) = (   0.0000000   0.2000000   0.4000000), wk =   0.0320000
        k(    7) = (   0.0000000   0.2000000  -0.4000000), wk =   0.0320000
        k(    8) = (   0.0000000   0.2000000  -0.2000000), wk =   0.0320000
        k(    9) = (   0.0000000   0.4000000   0.0000000), wk =   0.0320000
        k(   10) = (   0.0000000   0.4000000   0.2000000), wk =   0.0320000
        k(   11) = (   0.0000000   0.4000000   0.4000000), wk =   0.0320000
        k(   12) = (   0.0000000   0.4000000  -0.4000000), wk =   0.0320000
        k(   13) = (   0.0000000   0.4000000  -0.2000000), wk =   0.0320000
        k(   14) = (   0.2000000   0.0000000   0.0000000), wk =   0.0320000
        k(   15) = (   0.2000000   0.0000000   0.2000000), wk =   0.0320000
        k(   16) = (   0.2000000   0.0000000   0.4000000), wk =   0.0320000
        k(   17) = (   0.2000000   0.0000000  -0.4000000), wk =   0.0320000
        k(   18) = (   0.2000000   0.0000000  -0.2000000), wk =   0.0320000
        k(   19) = (   0.2000000   0.2000000   0.0000000), wk =   0.0320000
        k(   20) = (   0.2000000   0.2000000   0.2000000), wk =   0.0320000
        k(   21) = (   0.2000000   0.2000000   0.4000000), wk =   0.0320000
        k(   22) = (   0.2000000   0.2000000  -0.4000000), wk =   0.0320000
        k(   23) = (   0.2000000   0.2000000  -0.2000000), wk =   0.0320000
        k(   24) = (   0.2000000   0.4000000   0.0000000), wk =   0.0320000
        k(   25) = (   0.2000000   0.4000000   0.2000000), wk =   0.0320000
        k(   26) = (   0.2000000   0.4000000   0.4000000), wk =   0.0320000
        k(   27) = (   0.2000000   0.4000000  -0.4000000), wk =   0.0320000
        k(   28) = (   0.2000000   0.4000000  -0.2000000), wk =   0.0320000
        k(   29) = (   0.2000000  -0.4000000   0.0000000), wk =   0.0320000
        k(   30) = (   0.2000000  -0.4000000   0.2000000), wk =   0.0320000
        k(   31) = (   0.2000000  -0.4000000   0.4000000), wk =   0.0320000
        k(   32) = (   0.2000000  -0.4000000  -0.4000000), wk =   0.0320000
        k(   33) = (   0.2000000  -0.4000000  -0.2000000), wk =   0.0320000
        k(   34) = (   0.2000000  -0.2000000   0.0000000), wk =   0.0320000
        k(   35) = (   0.2000000  -0.2000000   0.2000000), wk =   0.0320000
        k(   36) = (   0.2000000  -0.2000000   0.4000000), wk =   0.0320000
        k(   37) = (   0.2000000  -0.2000000  -0.4000000), wk =   0.0320000
        k(   38) = (   0.2000000  -0.2000000  -0.2000000), wk =   0.0320000
        k(   39) = (   0.4000000   0.0000000   0.0000000), wk =   0.0320000
        k(   40) = (   0.4000000   0.0000000   0.2000000), wk =   0.0320000
        k(   41) = (   0.4000000   0.0000000   0.4000000), wk =   0.0320000
        k(   42) = (   0.4000000   0.0000000  -0.4000000), wk =   0.0320000
        k(   43) = (   0.4000000   0.0000000  -0.2000000), wk =   0.0320000
        k(   44) = (   0.4000000   0.2000000   0.0000000), wk =   0.0320000
        k(   45) = (   0.4000000   0.2000000   0.2000000), wk =   0.0320000
        k(   46) = (   0.4000000   0.2000000   0.4000000), wk =   0.0320000
        k(   47) = (   0.4000000   0.2000000  -0.4000000), wk =   0.0320000
        k(   48) = (   0.4000000   0.2000000  -0.2000000), wk =   0.0320000
        k(   49) = (   0.4000000   0.4000000   0.0000000), wk =   0.0320000
        k(   50) = (   0.4000000   0.4000000   0.2000000), wk =   0.0320000
        k(   51) = (   0.4000000   0.4000000   0.4000000), wk =   0.0320000
        k(   52) = (   0.4000000   0.4000000  -0.4000000), wk =   0.0320000
        k(   53) = (   0.4000000   0.4000000  -0.2000000), wk =   0.0320000
        k(   54) = (   0.4000000  -0.4000000   0.0000000), wk =   0.0320000
        k(   55) = (   0.4000000  -0.4000000   0.2000000), wk =   0.0320000
        k(   56) = (   0.4000000  -0.4000000   0.4000000), wk =   0.0320000
        k(   57) = (   0.4000000  -0.4000000  -0.4000000), wk =   0.0320000
        k(   58) = (   0.4000000  -0.4000000  -0.2000000), wk =   0.0320000
        k(   59) = (   0.4000000  -0.2000000   0.0000000), wk =   0.0320000
        k(   60) = (   0.4000000  -0.2000000   0.2000000), wk =   0.0320000
        k(   61) = (   0.4000000  -0.2000000   0.4000000), wk =   0.0320000
        k(   62) = (   0.4000000  -0.2000000  -0.4000000), wk =   0.0320000
        k(   63) = (   0.4000000  -0.2000000  -0.2000000), wk =   0.0320000

     Initial potential from superposition of free atoms

     starting charge   63.99678, renormalised to   64.00000
     Starting wfcs are   36 randomized atomic wfcs +    2 random wfcs

     Self-consistent Calculation

     iteration #  1     ecut=   100.00 Ry     beta= 0.50
     Davidson diagonalization with overlap
     ethr =  1.00E-02,  avg # of iterations =  4.0

     total energy              =    -608.03223956 Ry
     estimated scf accuracy    <       1.57336964 Ry

[...]

     End of self-consistent calculation

          k = 0.0000 0.0000 0.0000 (  8409 PWs)   bands (ev):

   -64.2904 -64.2789 -64.2789 -64.2789 -31.1156 -31.1156 -31.1156 -31.0716
   -31.0716 -31.0716 -31.0716 -31.0716 -31.0716 -31.0431 -31.0431 -31.0431
    -9.1286  -7.5854  -7.5854  -7.5853   4.0215   4.0215   4.0215   6.7284
     6.7284   6.7284   6.7284   6.7284   6.7285   8.0632   8.0632   8.0632
    12.8379  17.2907  17.2907  18.0836  18.0836  18.0836

[...]

     the Fermi energy is    10.0544 ev

!    total energy              =    -608.51633070 Ry
     estimated scf accuracy    <       0.00000002 Ry
     smearing contrib. (-TS)   =      -0.00000000 Ry
     internal energy E=F+TS    =    -608.51633070 Ry

     The total energy is F=E-TS. E is the sum of the following terms:
[...]
     xc contribution           =     -97.98764698 Ry
     ewald contribution        =    -379.16241501 Ry
     DFT-D3 Dispersion         =      -0.10805152 Ry

     convergence has been achieved in   8 iterations

     Forces acting on atoms (cartesian axes, Ry/au):

     atom    1 type  1   force =     0.00000019    0.00000064   -0.00000025
     atom    2 type  1   force =     0.00000006    0.00000052   -0.00000001
     atom    3 type  1   force =    -0.00000013    0.00000001   -0.00000018
     atom    4 type  1   force =    -0.00000007   -0.00000112    0.00000051
     atom    5 type  2   force =    -0.00000020    0.00000007   -0.00000054
     atom    6 type  2   force =     0.00000009    0.00000073    0.00000016
     atom    7 type  2   force =    -0.00000012   -0.00000046    0.00000006
     atom    8 type  2   force =     0.00000019   -0.00000039    0.00000026

     Total force =     0.000002     Total SCF correction =     0.000016
     SCF correction compared to forces is large: reduce conv_thr to get better values

     Computing stress (Cartesian axis) and pressure

          total   stress  (Ry/bohr**3)                   (kbar)     P=       12.04
   0.00008183   0.00000000   0.00000000           12.04        0.00        0.00
   0.00000000   0.00008183  -0.00000000            0.00       12.04       -0.00
   0.00000000  -0.00000000   0.00008183            0.00       -0.00       12.04

     BFGS Geometry Optimization

     number of scf cycles    =   1
     number of bfgs steps    =   0

     enthalpy new            =    -608.4306930682 Ry

     new trust radius        =       0.0098901908 bohr
     new conv_thr            =       0.0000010000 Ry

     new unit-cell volume =    500.58641 a.u.^3 (    74.17925 Ang^3 )
     density =      3.60890 g/cm^3

CELL_PARAMETERS (angstrom)
   4.201723790   0.000000098   0.000000009
   0.000000098   4.201723601  -0.000000077
   0.000000009  -0.000000077   4.201723508

ATOMIC_POSITIONS (angstrom)
Mg            0.0000001026        0.0000003393       -0.0000001329
Mg            0.0000000854        2.1008620343        2.1008617081
Mg            2.1008618291        0.0000000144        2.1008616622
Mg            2.1008619069        2.1008612587        0.0000002363
O             2.1008618406        2.1008618472        2.1008614358
O             2.1008619400        0.0000004359        0.0000000871
O            -0.0000000155        2.1008615577       -0.0000000093
O             0.0000001047       -0.0000002429        2.1008618932

     NEW-OLD atomic charge density approx. for the potential
     extrapolated charge   63.57520, renormalised to   64.00000

[...]

          k =-0.0000 0.0000 0.2004 (  8501 PWs)   bands (ev):

[...]

     enthalpy old            =    -608.4306930682 Ry
     enthalpy new            =    -608.4308671179 Ry

     CASE: enthalpy_new < enthalpy_old

[...]

     number of scf cycles    =   3
     number of bfgs steps    =   2

     enthalpy old            =    -608.4308671179 Ry
     enthalpy new            =    -608.4308701218 Ry

     CASE: enthalpy_new < enthalpy_old

     new trust radius        =       0.0011228798 bohr
     new conv_thr            =       0.0000000100 Ry

     new unit-cell volume =    499.80831 a.u.^3 (    74.06395 Ang^3 )
     density =      3.61452 g/cm^3

[...]

ATOMIC_POSITIONS (angstrom)
Mg            0.0000007042        0.0000004723        0.0000000851
Mg            0.0000006110        2.0997736582        2.0997729836
Mg            2.0997735915        0.0000000274        2.0997727394
Mg            2.0997731522        2.0997711404        0.0000003454
O             2.0997726061        2.0997716951        2.0997734077
O             2.0997733681        0.0000005250       -0.0000013985
O            -0.0000022055        2.0997728657        0.0000019715
O             0.0000001695       -0.0000011735        2.0997725088

     NEW-OLD atomic charge density approx. for the potential
     extrapolated charge   64.04818, renormalised to   64.00000

[...]

     Threshold (ethr) on eigenvalues was too large:
     Diagonalizing with lowered threshold

     Davidson diagonalization with overlap
     ethr =  6.87E-08,  avg # of iterations =  1.0

[...]

     bfgs converged in   4 scf cycles and   3 bfgs steps
     (criteria: energy <  1.0E-04 Ry, force <  1.0E-03Ry/Bohr, cell <  5.0E-01kbar)

     End of BFGS Geometry Optimization

     Final enthalpy =    -608.4308726281 Ry

     File ./tmp/pwscf.bfgs deleted, as requested
Begin final coordinates
     new unit-cell volume =    499.80831 a.u.^3 (    74.06395 Ang^3 )
     density =      3.61452 g/cm^3

CELL_PARAMETERS (angstrom)
   4.199546394  -0.000000141  -0.000000255
  -0.000000141   4.199544129   0.000000617
  -0.000000255   0.000000617   4.199545959

ATOMIC_POSITIONS (angstrom)
Mg            0.0000007042        0.0000004723        0.0000000851
Mg            0.0000006110        2.0997736582        2.0997729836
Mg            2.0997735915        0.0000000274        2.0997727394
Mg            2.0997731522        2.0997711404        0.0000003454
O             2.0997726061        2.0997716951        2.0997734077
O             2.0997733681        0.0000005250       -0.0000013985
O            -0.0000022055        2.0997728657        0.0000019715
O             0.0000001695       -0.0000011735        2.0997725088
End final coordinates

     Final scf calculation at the relaxed structure.
     The G-vectors are recalculated for the final unit cell
     Results may differ from those at the preceding step.

     bravais-lattice index     =            0
     lattice parameter (alat)  =       7.9576  a.u.
     unit-cell volume          =     499.8083 (a.u.)^3
     number of atoms/cell      =            8
     number of atomic types    =            2
     number of electrons       =        64.00
     number of Kohn-Sham states=           38
     kinetic-energy cutoff     =     100.0000  Ry
     charge density cutoff     =     400.0000  Ry
     convergence threshold     =      1.0E-08
     mixing beta               =       0.5000
     number of iterations used =            8  plain     mixing
     Exchange-correlation= PBE
                           (   1   4   3   4   0   0   0)

     celldm(1)=   7.957637  celldm(2)=   0.000000  celldm(3)=   0.000000
     celldm(4)=   0.000000  celldm(5)=   0.000000  celldm(6)=   0.000000

     crystal axes: (cart. coord. in units of alat)
               a(1) = (   0.997280  -0.000000  -0.000000 )
               a(2) = (  -0.000000   0.997280   0.000000 )
               a(3) = (  -0.000000   0.000000   0.997280 )

     reciprocal axes: (cart. coord. in units 2 pi/alat)
               b(1) = (  1.002727  0.000000  0.000000 )
               b(2) = (  0.000000  1.002728 -0.000000 )
               b(3) = (  0.000000 -0.000000  1.002727 )

     PseudoPot. # 1 for Mg read from file:
     ./Mg.upf
     MD5 check sum: 4c04d8c6e0476e83eaecaf72fa8acc4d
     Pseudo is Norm-conserving, Zval = 10.0
     Generated using ONCVPSP code by D. R. Hamann
     Using radial grid of 1510 points,  4 beta functions with:
                l(1) =   0
                l(2) =   0
                l(3) =   1
                l(4) =   1

     PseudoPot. # 2 for O  read from file:
     ./O.upf
     MD5 check sum: 3e3f909f7470e8921608ab6b1f57bbae
     Pseudo is Norm-conserving + core correction, Zval =  6.0
     Generated using ONCVPSP code by D. R. Hamann
     Using radial grid of  936 points,  5 beta functions with:
                l(1) =   0
                l(2) =   0
                l(3) =   1
                l(4) =   1
                l(5) =   2

     atomic species   valence    mass     pseudopotential
        Mg            10.00    24.30500     Mg( 1.00)
        O              6.00    15.99900     O ( 1.00)

     No symmetry found

   Cartesian axes

     site n.     atom                  positions (alat units)
         1           Mg  tau(   1) = (   0.0000002   0.0000001   0.0000000  )
         2           Mg  tau(   2) = (   0.0000001   0.4986401   0.4986400  )
         3           Mg  tau(   3) = (   0.4986401   0.0000000   0.4986399  )
         4           Mg  tau(   4) = (   0.4986400   0.4986395   0.0000001  )
         5           O   tau(   5) = (   0.4986399   0.4986397   0.4986401  )
         6           O   tau(   6) = (   0.4986401   0.0000001  -0.0000003  )
         7           O   tau(   7) = (  -0.0000005   0.4986400   0.0000005  )
         8           O   tau(   8) = (   0.0000000  -0.0000003   0.4986399  )

     number of k points=    63  Gaussian smearing, width (Ry)=  0.0050
                       cart. coord. in units 2pi/alat
        k(    1) = (   0.0000000   0.0000000   0.0000000), wk =   0.0160000
        k(    2) = (   0.0000000  -0.0000000   0.2005455), wk =   0.0320000
        k(    3) = (   0.0000000  -0.0000001   0.4010910), wk =   0.0320000
        k(    4) = (   0.0000000   0.2005456  -0.0000000), wk =   0.0320000
        k(    5) = (   0.0000000   0.2005455   0.2005455), wk =   0.0320000
        k(    6) = (   0.0000000   0.2005455   0.4010909), wk =   0.0320000
        k(    7) = (  -0.0000000   0.2005456  -0.4010910), wk =   0.0320000
        k(    8) = (  -0.0000000   0.2005456  -0.2005455), wk =   0.0320000
        k(    9) = (   0.0000000   0.4010912  -0.0000001), wk =   0.0320000
        k(   10) = (   0.0000000   0.4010911   0.2005454), wk =   0.0320000
        k(   11) = (   0.0000000   0.4010911   0.4010909), wk =   0.0320000
        k(   12) = (  -0.0000000   0.4010912  -0.4010910), wk =   0.0320000
        k(   13) = (   0.0000000   0.4010912  -0.2005455), wk =   0.0320000
        k(   14) = (   0.2005455   0.0000000   0.0000000), wk =   0.0320000
        k(   15) = (   0.2005455  -0.0000000   0.2005455), wk =   0.0320000
        k(   16) = (   0.2005455  -0.0000001   0.4010910), wk =   0.0320000
        k(   17) = (   0.2005454   0.0000001  -0.4010910), wk =   0.0320000
        k(   18) = (   0.2005455   0.0000000  -0.2005455), wk =   0.0320000
        k(   19) = (   0.2005455   0.2005456  -0.0000000), wk =   0.0320000
        k(   20) = (   0.2005455   0.2005456   0.2005455), wk =   0.0320000
        k(   21) = (   0.2005455   0.2005455   0.4010910), wk =   0.0320000
        k(   22) = (   0.2005455   0.2005456  -0.4010910), wk =   0.0320000
        k(   23) = (   0.2005455   0.2005456  -0.2005455), wk =   0.0320000
        k(   24) = (   0.2005455   0.4010912  -0.0000000), wk =   0.0320000
        k(   25) = (   0.2005455   0.4010911   0.2005454), wk =   0.0320000
        k(   26) = (   0.2005455   0.4010911   0.4010909), wk =   0.0320000
        k(   27) = (   0.2005455   0.4010912  -0.4010910), wk =   0.0320000
        k(   28) = (   0.2005455   0.4010912  -0.2005455), wk =   0.0320000
        k(   29) = (   0.2005455  -0.4010911   0.0000001), wk =   0.0320000
        k(   30) = (   0.2005455  -0.4010912   0.2005456), wk =   0.0320000
        k(   31) = (   0.2005455  -0.4010912   0.4010911), wk =   0.0320000
        k(   32) = (   0.2005454  -0.4010911  -0.4010909), wk =   0.0320000
        k(   33) = (   0.2005454  -0.4010911  -0.2005454), wk =   0.0320000
        k(   34) = (   0.2005455  -0.2005456   0.0000000), wk =   0.0320000
        k(   35) = (   0.2005455  -0.2005456   0.2005455), wk =   0.0320000
        k(   36) = (   0.2005455  -0.2005456   0.4010910), wk =   0.0320000
        k(   37) = (   0.2005454  -0.2005455  -0.4010909), wk =   0.0320000
        k(   38) = (   0.2005454  -0.2005455  -0.2005454), wk =   0.0320000
        k(   39) = (   0.4010909   0.0000000   0.0000000), wk =   0.0320000
        k(   40) = (   0.4010909  -0.0000000   0.2005455), wk =   0.0320000
        k(   41) = (   0.4010910  -0.0000000   0.4010910), wk =   0.0320000
        k(   42) = (   0.4010909   0.0000001  -0.4010910), wk =   0.0320000
        k(   43) = (   0.4010909   0.0000000  -0.2005455), wk =   0.0320000
        k(   44) = (   0.4010909   0.2005456  -0.0000000), wk =   0.0320000
        k(   45) = (   0.4010910   0.2005456   0.2005455), wk =   0.0320000
        k(   46) = (   0.4010910   0.2005455   0.4010910), wk =   0.0320000
        k(   47) = (   0.4010909   0.2005456  -0.4010910), wk =   0.0320000
        k(   48) = (   0.4010909   0.2005456  -0.2005455), wk =   0.0320000
        k(   49) = (   0.4010910   0.4010912  -0.0000000), wk =   0.0320000
        k(   50) = (   0.4010910   0.4010911   0.2005455), wk =   0.0320000
        k(   51) = (   0.4010910   0.4010911   0.4010909), wk =   0.0320000
        k(   52) = (   0.4010909   0.4010912  -0.4010910), wk =   0.0320000
        k(   53) = (   0.4010909   0.4010912  -0.2005455), wk =   0.0320000
        k(   54) = (   0.4010909  -0.4010911   0.0000001), wk =   0.0320000
        k(   55) = (   0.4010909  -0.4010912   0.2005456), wk =   0.0320000
        k(   56) = (   0.4010909  -0.4010912   0.4010911), wk =   0.0320000
        k(   57) = (   0.4010909  -0.4010911  -0.4010909), wk =   0.0320000
        k(   58) = (   0.4010909  -0.4010911  -0.2005454), wk =   0.0320000
        k(   59) = (   0.4010909  -0.2005456   0.0000001), wk =   0.0320000
        k(   60) = (   0.4010909  -0.2005456   0.2005455), wk =   0.0320000
        k(   61) = (   0.4010910  -0.2005456   0.4010910), wk =   0.0320000
        k(   62) = (   0.4010909  -0.2005455  -0.4010909), wk =   0.0320000
        k(   63) = (   0.4010909  -0.2005455  -0.2005454), wk =   0.0320000

     Initial potential from superposition of free atoms

     starting charge   63.99678, renormalised to   64.00000
     Starting wfcs are   36 randomized atomic wfcs +    2 random wfcs

     Self-consistent Calculation

     iteration #  1     ecut=   100.00 Ry     beta= 0.50
     Davidson diagonalization with overlap
     c_bands:  2 eigenvalues not converged
     c_bands:  1 eigenvalues not converged
     c_bands:  1 eigenvalues not converged
     c_bands:  2 eigenvalues not converged
     c_bands:  1 eigenvalues not converged
     ethr =  1.00E-06,  avg # of iterations = 13.1

[...]

     total energy              =    -608.51580896 Ry
     estimated scf accuracy    <       0.00000005 Ry

     iteration # 10     ecut=   100.00 Ry     beta= 0.50
     Davidson diagonalization with overlap
     ethr =  8.04E-11,  avg # of iterations =  2.0

     End of self-consistent calculation

[...]

          k =-0.0000 0.4011-0.4011 (  8432 PWs)   bands (ev):

[...]

          k = 0.4011-0.2005-0.2005 (  8466 PWs)   bands (ev):

   -64.1549 -64.1519 -64.1495 -64.1495 -30.9825 -30.9825 -30.9768 -30.9629
   -30.9507 -30.9507 -30.9336 -30.9336 -30.9329 -30.9302 -30.9228 -30.9208
    -8.3160  -7.9070  -7.5484  -7.5483   4.4124   4.4124   4.6208   5.2680
     5.9263   5.9263   6.9258   7.0393   7.0393   7.2947   7.6157   7.6310
    15.9098  17.2782  18.3993  18.3993  19.5935  20.2106

     the Fermi energy is    10.2374 ev

!    total energy              =    -608.51580896 Ry
     estimated scf accuracy    <          2.6E-09 Ry
     smearing contrib. (-TS)   =      -0.00000000 Ry
     internal energy E=F+TS    =    -608.51580896 Ry

     The total energy is F=E-TS. E is the sum of the following terms:
     one-electron contribution =    -295.68738636 Ry
     hartree contribution      =     165.49946028 Ry
     xc contribution           =     -98.02223999 Ry
     ewald contribution        =    -380.19660269 Ry
     DFT-D3 Dispersion         =      -0.10904021 Ry

     convergence has been achieved in  10 iterations

     Forces acting on atoms (cartesian axes, Ry/au):

     atom    1 type  1   force =    -0.00000034   -0.00000009   -0.00000010
     atom    2 type  1   force =    -0.00000045   -0.00000066    0.00000036
     atom    3 type  1   force =    -0.00000001   -0.00000001   -0.00000010
     atom    4 type  1   force =    -0.00000015    0.00000044   -0.00000007
     atom    5 type  2   force =     0.00000008    0.00000015   -0.00000009
     atom    6 type  2   force =    -0.00000017   -0.00000032    0.00000051
     atom    7 type  2   force =     0.00000100   -0.00000036   -0.00000076
     atom    8 type  2   force =     0.00000004    0.00000085    0.00000025

     Total force =     0.000002     Total SCF correction =     0.000000
     SCF correction compared to forces is large: reduce conv_thr to get better values

     Computing stress (Cartesian axis) and pressure

          total   stress  (Ry/bohr**3)                   (kbar)     P=       25.30
   0.00017196   0.00000000   0.00000000           25.30        0.00        0.00
   0.00000000   0.00017197  -0.00000000            0.00       25.30       -0.00
   0.00000000  -0.00000000   0.00017196            0.00       -0.00       25.30

     General routines

     Parallel routines

   This run was terminated on:  13:39:44   4Feb2024

   JOB DONE.